certificates/rado_a6_c298_N49.cnf
c Rad2 upper bound instance: x1 + 6*x2 - x3 = 298, interval [1,49]
p cnf 49 384
1 5 49 0
-1 -5 -49 0
2 6 49 0
-2 -6 -49 0
3 7 49 0
-3 -7 -49 0
4 8 49 0
-4 -8 -49 0
5 9 49 0
-5 -9 -49 0
6 10 49 0
-6 -10 -49 0
1 11 48 0
-1 -11 -48 0
7 11 49 0
-7 -11 -49 0
2 12 48 0
-2 -12 -48 0
8 12 49 0
-8 -12 -49 0
3 13 48 0
-3 -13 -48 0
9 13 49 0
-9 -13 -49 0
4 14 48 0
-4 -14 -48 0
10 14 49 0
-10 -14 -49 0
5 15 48 0
-5 -15 -48 0
11 15 49 0
-11 -15 -49 0
6 16 48 0
-6 -16 -48 0
12 16 49 0
-12 -16 -49 0
1 17 47 0
-1 -17 -47 0
7 17 48 0
-7 -17 -48 0
13 17 49 0
-13 -17 -49 0
2 18 47 0
-2 -18 -47 0
8 18 48 0
-8 -18 -48 0
14 18 49 0
-14 -18 -49 0
3 19 47 0
-3 -19 -47 0
9 19 48 0
-9 -19 -48 0
15 19 49 0
-15 -19 -49 0
4 20 47 0
-4 -20 -47 0
10 20 48 0
-10 -20 -48 0
16 20 49 0
-16 -20 -49 0
5 21 47 0
-5 -21 -47 0
11 21 48 0
-11 -21 -48 0
17 21 49 0
-17 -21 -49 0
6 22 47 0
-6 -22 -47 0
12 22 48 0
-12 -22 -48 0
18 22 49 0
-18 -22 -49 0
1 23 46 0
-1 -23 -46 0
7 23 47 0
-7 -23 -47 0
13 23 48 0
-13 -23 -48 0
19 23 49 0
-19 -23 -49 0
2 24 46 0
-2 -24 -46 0
8 24 47 0
-8 -24 -47 0
14 24 48 0
-14 -24 -48 0
20 24 49 0
-20 -24 -49 0
3 25 46 0
-3 -25 -46 0
9 25 47 0
-9 -25 -47 0
15 25 48 0
-15 -25 -48 0
21 25 49 0
-21 -25 -49 0
4 26 46 0
-4 -26 -46 0
10 26 47 0
-10 -26 -47 0
16 26 48 0
-16 -26 -48 0
22 26 49 0
-22 -26 -49 0
5 27 46 0
-5 -27 -46 0
11 27 47 0
-11 -27 -47 0
17 27 48 0
-17 -27 -48 0
23 27 49 0
-23 -27 -49 0
6 28 46 0
-6 -28 -46 0
12 28 47 0
-12 -28 -47 0
18 28 48 0
-18 -28 -48 0
24 28 49 0
-24 -28 -49 0
1 29 45 0
-1 -29 -45 0
7 29 46 0
-7 -29 -46 0
13 29 47 0
-13 -29 -47 0
19 29 48 0
-19 -29 -48 0
25 29 49 0
-25 -29 -49 0
2 30 45 0
-2 -30 -45 0
8 30 46 0
-8 -30 -46 0
14 30 47 0
-14 -30 -47 0
20 30 48 0
-20 -30 -48 0
26 30 49 0
-26 -30 -49 0
3 31 45 0
-3 -31 -45 0
9 31 46 0
-9 -31 -46 0
15 31 47 0
-15 -31 -47 0
21 31 48 0
-21 -31 -48 0
27 31 49 0
-27 -31 -49 0
4 32 45 0
-4 -32 -45 0
10 32 46 0
-10 -32 -46 0
16 32 47 0
-16 -32 -47 0
22 32 48 0
-22 -32 -48 0
28 32 49 0
-28 -32 -49 0
5 33 45 0
-5 -33 -45 0
11 33 46 0
-11 -33 -46 0
17 33 47 0
-17 -33 -47 0
23 33 48 0
-23 -33 -48 0
29 33 49 0
-29 -33 -49 0
6 34 45 0
-6 -34 -45 0
12 34 46 0
-12 -34 -46 0
18 34 47 0
-18 -34 -47 0
24 34 48 0
-24 -34 -48 0
30 34 49 0
-30 -34 -49 0
1 35 44 0
-1 -35 -44 0
7 35 45 0
-7 -35 -45 0
13 35 46 0
-13 -35 -46 0
19 35 47 0
-19 -35 -47 0
25 35 48 0
-25 -35 -48 0
31 35 49 0
-31 -35 -49 0
2 36 44 0
-2 -36 -44 0
8 36 45 0
-8 -36 -45 0
14 36 46 0
-14 -36 -46 0
20 36 47 0
-20 -36 -47 0
26 36 48 0
-26 -36 -48 0
32 36 49 0
-32 -36 -49 0
3 37 44 0
-3 -37 -44 0
9 37 45 0
-9 -37 -45 0
15 37 46 0
-15 -37 -46 0
21 37 47 0
-21 -37 -47 0
27 37 48 0
-27 -37 -48 0
33 37 49 0
-33 -37 -49 0
4 38 44 0
-4 -38 -44 0
10 38 45 0
-10 -38 -45 0
16 38 46 0
-16 -38 -46 0
22 38 47 0
-22 -38 -47 0
28 38 48 0
-28 -38 -48 0
34 38 49 0
-34 -38 -49 0
5 39 44 0
-5 -39 -44 0
11 39 45 0
-11 -39 -45 0
17 39 46 0
-17 -39 -46 0
23 39 47 0
-23 -39 -47 0
29 39 48 0
-29 -39 -48 0
35 39 49 0
-35 -39 -49 0
6 40 44 0
-6 -40 -44 0
12 40 45 0
-12 -40 -45 0
18 40 46 0
-18 -40 -46 0
24 40 47 0
-24 -40 -47 0
30 40 48 0
-30 -40 -48 0
36 40 49 0
-36 -40 -49 0
1 41 43 0
-1 -41 -43 0
7 41 44 0
-7 -41 -44 0
13 41 45 0
-13 -41 -45 0
19 41 46 0
-19 -41 -46 0
25 41 47 0
-25 -41 -47 0
31 41 48 0
-31 -41 -48 0
37 41 49 0
-37 -41 -49 0
2 42 43 0
-2 -42 -43 0
8 42 44 0
-8 -42 -44 0
14 42 45 0
-14 -42 -45 0
20 42 46 0
-20 -42 -46 0
26 42 47 0
-26 -42 -47 0
32 42 48 0
-32 -42 -48 0
38 42 49 0
-38 -42 -49 0
3 43 0
-3 -43 0
9 43 44 0
-9 -43 -44 0
15 43 45 0
-15 -43 -45 0
21 43 46 0
-21 -43 -46 0
27 43 47 0
-27 -43 -47 0
33 43 48 0
-33 -43 -48 0
39 43 49 0
-39 -43 -49 0
4 43 44 0
-4 -43 -44 0
10 44 0
-10 -44 0
16 44 45 0
-16 -44 -45 0
22 44 46 0
-22 -44 -46 0
28 44 47 0
-28 -44 -47 0
34 44 48 0
-34 -44 -48 0
40 44 49 0
-40 -44 -49 0
5 43 45 0
-5 -43 -45 0
11 44 45 0
-11 -44 -45 0
17 45 0
-17 -45 0
23 45 46 0
-23 -45 -46 0
29 45 47 0
-29 -45 -47 0
35 45 48 0
-35 -45 -48 0
41 45 49 0
-41 -45 -49 0
6 43 46 0
-6 -43 -46 0
12 44 46 0
-12 -44 -46 0
18 45 46 0
-18 -45 -46 0
24 46 0
-24 -46 0
30 46 47 0
-30 -46 -47 0
36 46 48 0
-36 -46 -48 0
42 46 49 0
-42 -46 -49 0
1 42 47 0
-1 -42 -47 0
7 43 47 0
-7 -43 -47 0
13 44 47 0
-13 -44 -47 0
19 45 47 0
-19 -45 -47 0
25 46 47 0
-25 -46 -47 0
31 47 0
-31 -47 0
37 47 48 0
-37 -47 -48 0
43 47 49 0
-43 -47 -49 0
2 42 48 0
-2 -42 -48 0
8 43 48 0
-8 -43 -48 0
14 44 48 0
-14 -44 -48 0
20 45 48 0
-20 -45 -48 0
26 46 48 0
-26 -46 -48 0
32 47 48 0
-32 -47 -48 0
38 48 0
-38 -48 0
44 48 49 0
-44 -48 -49 0
3 42 49 0
-3 -42 -49 0
9 43 49 0
-9 -43 -49 0
15 44 49 0
-15 -44 -49 0
21 45 49 0
-21 -45 -49 0
27 46 49 0
-27 -46 -49 0
33 47 49 0
-33 -47 -49 0
39 48 49 0
-39 -48 -49 0
45 49 0
-45 -49 0
