certificates/rado_a6_c298_N49.drat
-49 0
45 0
-17 0
13 0
21 0
-41 0
37 0
-9 0
-47 0
5 0
25 0
43 0
31 0
33 0
1 0
0
